Route #1: 17 51 6 62 28 2
Route #2: 22 64 42 41 43 1 33
Route #3: 16 63 23 56 49 24 3 44
Route #4: 32 50 18 55 25 9 39
Route #5: 12 58 10 31 40
Route #6: 38 11 59 14 35
Route #7: 8 13 15 57 54 19 53 7
Route #8: 26 46 34 52 27 45
Route #9: 29 5 37 20 60 36 61
Route #10: 30 21 47 48 4
Cost 842